number of jobs, number of machines, initial seed, upper bound and lower bound :
10           10   0000        0000        0000
processing times :
 39 54 73 76 4 36 75 94 47 49
 1 36 98 13 13 90 29 70 63 32
 95 20 99 30 30 61 76 62 86 5
 30 71 64 39 42 97 65 40 5 35
 40 94 83 69 93 98 57 53 99 89
 88 35 27 90 64 22 14 35 33 70
 49 79 57 93 67 93 66 25 63 19
 29 60 64 93 83 84 83 21 8 39
 32 13 84 26 26 20 85 68 26 8
 21 94 98 53 37 24 55 90 42 94
